1500 0 1 50
11000 0 1 100
11500 0 1 150
12000 0 1 200
12500 0 1 250
2200 0 2 20
3200 0 3 20
3150 0 3 150
1501 1 1 50
11001 1 1 100
11501 1 1 150
12001 1 1 200
12501 1 1 250
2201 1 2 20
3201 1 3 20
31501 1 3 150